(set-logic QF_SLIA)
(declare-fun var0 () String)
(assert (str.in_re var0 (re.++ ((_ re.loop 5 922) (re.++ (re.union (str.to_re "&") (re.union (str.to_re "OF2") (re.union (str.to_re "fcC") (str.to_re "n=~")))) (re.++ (re.union (str.to_re "`") (re.union (str.to_re "R") (re.union (str.to_re ":y,") (str.to_re "S")))) (re.++ (re.union (str.to_re "\\") (re.union (str.to_re "}k:") (re.union (str.to_re "~+") (str.to_re "!")))) (re.union (str.to_re "'") (re.union (str.to_re "j!") (re.union (str.to_re "Ok_") (str.to_re "Yl")))))))) (re.++ ((_ re.loop 1 985) (re.++ (re.union (str.to_re "O") (re.union (str.to_re "s") (re.union (str.to_re ",H") (str.to_re "M|")))) (re.++ (re.union (str.to_re "qCk") (re.union (str.to_re "f]q") (re.union (str.to_re "PS'") (str.to_re "Y*")))) (re.++ (re.union (str.to_re "p\\") (re.union (str.to_re "b") (re.union (str.to_re "!") (str.to_re "h")))) (re.union (str.to_re "|") (re.union (str.to_re "IA9") (re.union (str.to_re "p3") (str.to_re ":")))))))) (re.++ ((_ re.loop 8 762) (re.++ (re.union (str.to_re "dm9") (re.union (str.to_re ".'z") (re.union (str.to_re "W") (str.to_re "/cY")))) (re.++ (re.union (str.to_re "9") (re.union (str.to_re "*r+") (re.union (str.to_re "f'q") (str.to_re "!QA")))) (re.++ (re.union (str.to_re "C-E") (re.union (str.to_re "a") (re.union (str.to_re "uP") (str.to_re "\u0022{$")))) (re.union (str.to_re "Xq") (re.union (str.to_re "hz/") (re.union (str.to_re "[X!") (str.to_re ";")))))))) ((_ re.loop 15 591) (re.++ (re.union (str.to_re "e4J") (re.union (str.to_re "aL)") (re.union (str.to_re "l") (str.to_re "SR")))) (re.++ (re.union (str.to_re "[") (re.union (str.to_re ".w") (re.union (str.to_re "9AV") (str.to_re "\u0022n")))) (re.++ (re.union (str.to_re "D0a") (re.union (str.to_re "\u0022-S") (re.union (str.to_re "Y'") (str.to_re "C;")))) (re.union (str.to_re "#M*") (re.union (str.to_re "@p") (re.union (str.to_re "\u0022") (str.to_re "HB")))))))))))))
(assert (not (str.in_re var0 (re.++ ((_ re.loop 3 180) (re.++ (re.union (str.to_re "r}g") (re.union (str.to_re "E") (re.union (str.to_re "h") (str.to_re "nkX")))) (re.++ (re.union (str.to_re "|.") (re.union (str.to_re ":(") (re.union (str.to_re "w7") (str.to_re "Zc/")))) (re.++ (re.union (str.to_re "b") (re.union (str.to_re "Jv") (re.union (str.to_re "u3~") (str.to_re ".")))) (re.union (str.to_re "qz") (re.union (str.to_re "z") (re.union (str.to_re "N") (str.to_re "Z\\")))))))) (re.++ ((_ re.loop 17 648) (re.++ (re.union (str.to_re "Ws") (re.union (str.to_re "VU") (re.union (str.to_re "v|") (str.to_re "l1")))) (re.++ (re.union (str.to_re "=") (re.union (str.to_re "*A") (re.union (str.to_re "j,\\") (str.to_re "G")))) (re.++ (re.union (str.to_re "\u0022#") (re.union (str.to_re "r0|") (re.union (str.to_re "Ov") (str.to_re "T\\")))) (re.union (str.to_re "9~Y") (re.union (str.to_re "Q") (re.union (str.to_re "40$") (str.to_re "m")))))))) (re.++ ((_ re.loop 8 452) (re.++ (re.union (str.to_re "xx") (re.union (str.to_re "v(1") (re.union (str.to_re ">n") (str.to_re "d6k")))) (re.++ (re.union (str.to_re "W") (re.union (str.to_re "_W(") (re.union (str.to_re ";") (str.to_re "tw8")))) (re.++ (re.union (str.to_re "-Ki") (re.union (str.to_re "V") (re.union (str.to_re "3w") (str.to_re "8eC")))) (re.union (str.to_re "4") (re.union (str.to_re "h-") (re.union (str.to_re "#)S") (str.to_re "cV")))))))) ((_ re.loop 13 184) (re.++ (re.union (str.to_re "K") (re.union (str.to_re "c1#") (re.union (str.to_re "M") (str.to_re "urb")))) (re.++ (re.union (str.to_re "I$u") (re.union (str.to_re "h;Y") (re.union (str.to_re "b") (str.to_re "5\u0022")))) (re.++ (re.union (str.to_re "u$") (re.union (str.to_re "\\") (re.union (str.to_re "X") (str.to_re "*")))) (re.union (str.to_re "1KT") (re.union (str.to_re "t") (re.union (str.to_re "1") (str.to_re "K"))))))))))))))
(assert (not (str.in_re var0 (re.++ (re.* re.allchar) (re.++ (re.union (str.to_re "<") (re.union (str.to_re ">") (re.union (str.to_re "'") (re.union (str.to_re "\u0022") (str.to_re "&"))))) (re.* re.allchar))))))
(assert (<= 50 (str.len var0)))
(check-sat)
(get-model)
